33D32945 STP File, STP Format Version 1.0

SECTION Comment
Name "lin04-5s"
Creator "Bernd Zey"
Problem "Stochastic Steiner Tree Problem"
# Stochastic Steiner tree problem instance, base file: lin04.stp
# weight-scaling off
# parameters:
# distribution=equal
# selectRootRandomly=0
# probabilityTerminal=33
# probabilityNonTerminal=5
# 2nd stage edge-costs in [1.1000c_e, 1.3000c_e]
END

SECTION Graph
Nodes 157
Edges 266
Scenarios 5
Root 21
E 1 34 122
E 1 46 146
E 2 70 64
E 2 94 50
E 2 23 10
E 3 103 28
E 3 112 62
E 3 51 28
E 4 120 62
E 4 66 32
E 4 20 74
E 4 32 40
E 5 51 62
E 5 112 28
E 5 109 74
E 5 96 26
E 6 130 28
E 6 17 40
E 6 119 90
E 6 57 12
E 7 14 146
E 7 49 46
E 7 111 102
E 8 30 132
E 8 38 28
E 8 42 28
E 8 68 70
E 9 140 74
E 9 10 2
E 9 121 118
E 10 32 74
E 10 20 40
E 11 147 158
E 11 27 36
E 11 128 32
E 12 97 32
E 12 13 46
E 12 123 16
E 13 48 32
E 13 18 132
E 13 72 16
E 14 92 28
E 14 30 46
E 15 26 130
E 15 135 64
E 15 77 8
E 16 90 2
E 16 58 8
E 16 142 26
E 17 68 28
E 17 42 70
E 17 113 90
E 18 133 32
E 18 36 28
E 18 39 16
E 19 85 46
E 19 88 84
E 19 31 132
E 19 131 112
E 20 28 32
E 21 116 51
E 21 68 81
E 22 78 28
E 22 65 24
E 22 155 158
E 22 54 6
E 23 26 64
E 23 135 130
E 24 27 122
E 24 143 54
E 24 50 32
E 25 137 2
E 25 37 42
E 25 144 8
E 26 156 54
E 26 70 10
E 27 87 32
E 28 66 74
E 29 94 16
E 29 89 44
E 29 150 140
E 30 131 28
E 30 116 70
E 31 47 84
E 31 99 28
E 31 38 112
E 32 61 62
E 32 140 2
E 33 43 6
E 33 90 26
E 33 142 2
E 33 101 76
E 34 40 14
E 34 55 76
E 35 93 50
E 35 154 52
E 36 147 32
E 36 128 158
E 36 65 16
E 37 94 140
E 37 150 16
E 37 110 8
E 38 131 132
E 38 114 28
E 39 72 132
E 39 65 28
E 39 78 24
E 40 80 98
E 40 122 76
E 41 54 158
E 41 155 6
E 41 118 36
E 41 141 84
E 42 114 28
E 42 106 90
E 43 63 64
E 43 151 26
E 43 102 76
E 44 51 26
E 44 96 62
E 44 69 158
E 45 136 98
E 45 153 28
E 45 125 14
E 45 122 34
E 46 124 122
E 46 104 158
E 47 88 132
E 47 78 6
E 47 54 28
E 48 97 46
E 48 133 132
E 49 116 76
E 49 100 132
E 49 98 102
E 50 87 122
E 50 148 54
E 50 145 16
E 51 89 98
E 52 98 132
E 52 100 102
E 52 157 164
E 53 119 46
E 53 77 76
E 53 60 12
E 54 99 84
E 55 122 14
E 55 125 34
E 56 123 24
E 56 84 46
E 56 115 6
E 57 62 28
E 57 95 90
E 58 139 2
E 58 144 28
E 58 138 42
E 59 67 64
E 59 64 28
E 59 139 6
E 59 151 8
E 60 95 46
E 60 75 16
E 61 79 37
E 61 120 40
E 61 126 2
E 62 130 12
E 62 100 24
E 63 134 26
E 63 127 76
E 64 77 64
E 64 135 8
E 64 86 6
E 65 105 158
E 66 143 132
E 67 71 40
E 67 77 28
E 67 134 8
E 68 130 40
E 69 150 98
E 69 124 14
E 69 153 8
E 70 82 186
E 71 74 32
E 72 123 46
E 72 84 24
E 73 152 18
E 73 117 104
E 73 82 6
E 74 75 4
E 74 93 8
E 75 81 8
E 76 114 90
E 76 156 68
E 76 106 28
E 78 84 132
E 79 146 77
E 80 101 60
E 80 132 76
E 81 100 164
E 81 93 4
E 81 157 102
E 82 118 18
E 83 129 146
E 83 89 16
E 83 94 44
E 84 88 6
E 85 115 84
E 85 92 112
E 86 137 8
E 86 144 2
E 86 139 28
E 87 128 36
E 87 107 16
E 88 115 46
E 90 151 6
E 90 139 8
E 91 153 14
E 91 124 8
E 91 125 28
E 92 131 46
E 93 134 72
E 95 119 12
E 96 104 74
E 98 111 46
E 99 149 60
E 99 114 112
E 101 102 6
E 102 127 64
E 103 126 90
E 104 109 26
E 105 128 16
E 105 107 36
E 105 155 24
E 106 113 70
E 107 145 122
E 107 152 24
E 108 110 16
E 108 150 8
E 108 153 98
E 108 136 28
E 109 121 28
E 110 144 42
E 110 138 28
E 112 140 118
E 112 121 74
E 113 119 40
E 117 145 24
E 117 146 10
E 118 152 6
E 120 148 70
E 122 132 98
E 126 129 114
E 126 140 62
E 127 154 72
E 129 146 2
E 132 142 58
E 132 136 34
E 133 147 28
E 134 151 64
E 135 137 6
E 136 138 16
E 141 149 98
E 141 156 112
E 143 148 32
E 152 155 36
E 154 157 4
END

SECTION StochasticProbabilities
SP 0.15910 0.13640 0.27280 0.11360 0.31810
END

SECTION StochasticWeights
SE 156 142 144 146 148 
SE 189 167 178 189 163 
SE 72 72 83 82 80 
SE 57 64 64 61 63 
SE 12 13 11 11 12 
SE 31 31 36 35 31 
SE 77 75 76 71 77 
SE 31 35 34 35 35 
SE 70 78 71 70 75 
SE 41 39 37 36 37 
SE 95 87 82 82 82 
SE 48 49 50 51 51 
SE 72 79 74 79 69 
SE 35 31 34 35 31 
SE 91 86 84 85 85 
SE 31 30 32 29 30 
SE 31 33 31 36 31 
SE 48 50 44 49 51 
SE 109 110 110 110 114 
SE 14 14 14 14 14 
SE 181 173 161 165 189 
SE 57 55 51 54 55 
SE 120 117 132 132 124 
SE 168 164 148 151 155 
SE 31 34 35 35 34 
SE 35 31 32 31 31 
SE 84 87 90 82 82 
SE 84 94 95 89 84 
SE 3 3 3 3 3 
SE 150 146 144 142 152 
SE 82 92 91 85 90 
SE 52 45 47 51 48 
SE 196 205 202 182 186 
SE 40 40 44 40 43 
SE 36 37 39 39 39 
SE 36 36 41 37 36 
SE 59 52 54 54 56 
SE 20 18 19 20 18 
SE 36 40 39 41 41 
SE 163 151 157 152 146 
SE 18 18 18 18 18 
SE 34 36 32 31 32 
SE 51 53 57 54 59 
SE 168 166 159 143 146 
SE 79 75 74 75 78 
SE 9 9 10 9 9 
SE 3 3 3 3 3 
SE 9 9 9 9 10 
SE 33 32 29 29 29 
SE 33 32 31 36 31 
SE 85 89 91 80 84 
SE 101 110 103 106 112 
SE 38 40 36 37 36 
SE 32 33 33 32 35 
SE 19 19 18 19 18 
SE 54 53 53 55 51 
SE 108 97 109 94 94 
SE 165 157 167 161 162 
SE 144 144 128 144 144 
SE 38 38 41 40 39 
SE 66 60 59 66 57 
SE 105 93 98 90 103 
SE 32 31 33 31 35 
SE 30 27 30 29 28 
SE 183 186 178 191 182 
SE 7 7 7 7 7 
SE 74 83 78 73 78 
SE 162 161 168 155 143 
SE 140 149 145 148 135 
SE 64 64 61 63 70 
SE 36 37 40 38 40 
SE 3 3 3 3 3 
SE 51 47 49 47 51 
SE 10 9 9 9 9 
SE 70 64 69 70 60 
SE 11 12 13 12 13 
SE 41 38 39 38 37 
SE 93 90 91 96 89 
SE 20 18 19 20 18 
SE 55 51 50 51 50 
SE 169 170 180 177 171 
SE 34 32 31 32 31 
SE 85 86 79 88 78 
SE 104 108 102 96 99 
SE 35 33 31 33 34 
SE 130 138 133 144 138 
SE 74 73 77 78 69 
SE 3 3 3 3 3 
SE 7 7 7 7 7 
SE 32 30 31 33 29 
SE 3 3 3 3 3 
SE 97 97 94 92 91 
SE 18 16 16 16 16 
SE 96 98 91 94 93 
SE 61 56 56 57 56 
SE 58 58 66 58 58 
SE 36 39 36 38 37 
SE 197 192 185 203 188 
SE 18 18 18 20 20 
SE 164 168 177 178 155 
SE 18 19 18 19 18 
SE 9 9 9 9 9 
SE 159 165 167 163 151 
SE 31 35 34 36 33 
SE 149 171 152 146 154 
SE 31 32 35 31 33 
SE 28 29 27 27 27 
SE 116 114 127 122 114 
SE 94 86 87 85 86 
SE 184 178 184 194 196 
SE 7 7 7 7 7 
SE 46 41 43 42 45 
SE 101 104 97 100 104 
SE 35 35 32 31 32 
SE 101 100 111 106 111 
SE 71 77 71 78 77 
SE 29 33 29 29 29 
SE 94 94 93 97 86 
SE 29 29 29 29 32 
SE 69 69 70 78 71 
SE 200 175 175 179 181 
SE 122 126 119 124 119 
SE 36 33 34 33 32 
SE 18 16 16 17 16 
SE 38 38 44 43 39 
SE 155 142 143 141 150 
SE 199 187 174 181 188 
SE 166 168 151 157 157 
SE 7 7 7 7 7 
SE 31 31 31 34 32 
SE 58 52 51 54 58 
SE 159 160 163 155 161 
SE 89 91 88 96 94 
SE 158 171 152 146 158 
SE 122 130 127 114 113 
SE 138 154 148 135 138 
SE 68 61 64 62 65 
SE 20 19 18 18 18 
SE 116 114 124 118 113 
SE 152 171 149 149 152 
SE 113 120 124 131 127 
SE 213 191 206 193 201 
SE 56 54 58 55 58 
SE 88 88 87 94 97 
SE 14 14 14 14 14 
SE 108 107 107 101 108 
SE 16 16 18 16 18 
SE 44 39 38 39 41 
SE 29 30 31 31 31 
SE 53 52 52 57 56 
SE 7 7 7 7 7 
SE 36 35 32 33 36 
SE 101 102 115 106 108 
SE 3 3 3 3 3 
SE 31 36 34 31 36 
SE 50 47 54 50 51 
SE 76 82 82 80 76 
SE 35 31 35 33 36 
SE 7 7 7 7 7 
SE 9 10 10 9 9 
SE 51 57 56 51 52 
SE 20 20 18 19 20 
SE 45 43 42 44 47 
SE 51 47 47 46 51 
SE 3 3 3 3 3 
SE 14 14 14 14 15 
SE 28 29 28 27 30 
SE 31 30 31 30 33 
SE 89 87 94 84 85 
SE 71 77 81 76 78 
SE 10 10 9 9 9 
SE 7 7 7 7 7 
SE 194 199 187 184 186 
SE 146 159 157 147 146 
SE 51 49 49 46 49 
SE 31 34 36 31 32 
SE 9 9 9 9 9 
SE 47 45 46 46 44 
SE 127 110 122 127 114 
SE 16 18 17 18 18 
SE 9 9 10 10 10 
SE 220 219 229 240 221 
SE 36 40 41 41 36 
SE 51 54 51 56 55 
SE 27 27 29 31 30 
SE 23 22 23 20 23 
SE 123 127 123 124 116 
SE 7 7 7 7 7 
SE 5 5 5 5 5 
SE 9 9 10 9 9 
SE 9 9 9 10 9 
SE 117 109 101 113 103 
SE 86 78 78 83 75 
SE 31 32 31 36 33 
SE 166 158 167 151 170 
SE 86 96 96 100 98 
SE 72 75 78 74 72 
SE 94 91 89 89 93 
SE 209 196 182 188 208 
SE 5 5 5 5 5 
SE 131 123 113 124 114 
SE 20 21 20 20 23 
SE 170 188 174 186 181 
SE 20 19 18 19 20 
SE 51 52 57 51 56 
SE 7 7 7 7 7 
SE 96 103 93 97 108 
SE 142 124 145 137 131 
SE 9 10 9 9 9 
SE 3 3 3 3 3 
SE 31 35 32 36 31 
SE 45 44 44 40 44 
SE 20 18 19 18 18 
SE 56 56 54 51 51 
SE 7 7 7 7 7 
SE 9 9 10 10 9 
SE 16 17 16 16 18 
SE 9 9 9 10 9 
SE 33 35 31 31 31 
SE 52 56 55 57 54 
SE 87 92 82 85 87 
SE 14 15 15 14 14 
SE 94 94 90 89 82 
SE 52 57 51 57 59 
SE 77 76 67 67 76 
SE 126 128 144 131 127 
SE 7 7 7 7 7 
SE 75 82 71 71 79 
SE 102 105 109 102 100 
SE 31 31 29 29 30 
SE 19 18 18 19 18 
SE 40 46 45 40 44 
SE 27 27 30 29 27 
SE 85 90 91 80 78 
SE 138 153 151 135 135 
SE 30 31 31 27 28 
SE 19 20 18 19 18 
SE 10 9 10 9 9 
SE 108 126 115 119 109 
SE 35 32 31 33 35 
SE 36 31 31 33 31 
SE 50 48 54 51 47 
SE 35 33 35 34 33 
SE 147 136 144 146 151 
SE 82 85 86 84 83 
SE 48 51 52 48 44 
SE 27 27 29 29 31 
SE 12 13 11 11 12 
SE 7 7 7 7 7 
SE 90 82 79 82 85 
SE 125 123 126 115 123 
SE 146 137 126 126 136 
SE 72 76 69 74 69 
SE 89 87 85 85 92 
SE 3 3 3 3 3 
SE 67 69 66 70 64 
SE 42 40 42 44 38 
SE 35 35 33 36 35 
SE 83 77 78 75 83 
SE 7 7 7 7 7 
SE 18 20 18 18 18 
SE 112 126 114 116 113 
SE 141 126 136 124 136 
SE 37 37 36 40 38 
SE 40 45 43 42 46 
SE 5 5 5 5 5 
END

SECTION StochasticTerminals
ST 1 1 0 0 0 0 
ST 2 0 0 0 0 0 
ST 3 0 0 0 0 0 
ST 4 0 0 0 0 0 
ST 5 0 0 0 0 0 
ST 6 0 0 0 0 0 
ST 7 0 0 0 0 0 
ST 8 0 0 0 0 0 
ST 9 0 0 0 0 0 
ST 10 0 1 0 0 0 
ST 11 0 0 0 0 0 
ST 12 0 0 0 0 0 
ST 13 0 0 0 0 0 
ST 14 0 0 0 0 0 
ST 15 0 0 0 0 0 
ST 16 0 0 0 0 0 
ST 17 0 0 0 0 0 
ST 18 0 0 0 0 0 
ST 19 0 0 0 0 0 
ST 20 0 0 0 0 0 
ST 21 1 1 1 1 1 
ST 22 0 0 0 0 0 
ST 23 0 0 0 0 0 
ST 24 0 0 0 0 1 
ST 25 0 0 0 0 0 
ST 26 0 0 0 0 0 
ST 27 0 0 0 0 0 
ST 28 0 0 0 0 0 
ST 29 0 0 0 0 0 
ST 30 0 0 0 1 0 
ST 31 1 0 0 0 0 
ST 32 0 0 0 0 0 
ST 33 0 0 1 0 0 
ST 34 0 0 0 0 1 
ST 35 0 0 0 1 0 
ST 36 0 0 0 0 0 
ST 37 0 1 0 0 0 
ST 38 0 0 0 0 0 
ST 39 0 0 0 0 0 
ST 40 0 0 0 0 0 
ST 41 0 0 0 0 0 
ST 42 0 0 0 0 0 
ST 43 0 0 0 0 0 
ST 44 0 0 0 0 0 
ST 45 0 0 0 0 0 
ST 46 0 0 0 0 0 
ST 47 0 0 0 0 0 
ST 48 0 0 0 0 0 
ST 49 0 0 0 0 0 
ST 50 0 0 0 0 0 
ST 51 0 0 0 0 0 
ST 52 0 0 0 0 1 
ST 53 0 0 0 0 0 
ST 54 0 0 0 0 0 
ST 55 0 0 0 1 0 
ST 56 0 0 0 0 0 
ST 57 0 0 1 0 0 
ST 58 0 0 0 0 0 
ST 59 0 0 0 0 0 
ST 60 0 0 0 0 0 
ST 61 0 0 0 0 0 
ST 62 0 1 0 0 0 
ST 63 0 0 0 0 0 
ST 64 0 1 0 0 0 
ST 65 1 0 0 0 0 
ST 66 0 0 0 0 0 
ST 67 1 0 0 0 0 
ST 68 0 0 0 0 0 
ST 69 0 0 0 0 0 
ST 70 0 0 0 0 0 
ST 71 0 0 1 0 0 
ST 72 0 0 0 0 0 
ST 73 0 0 0 0 0 
ST 74 0 0 0 0 0 
ST 75 0 0 0 0 0 
ST 76 1 0 0 0 0 
ST 77 0 0 0 0 0 
ST 78 0 0 0 1 0 
ST 79 1 0 0 0 0 
ST 80 0 0 0 0 0 
ST 81 0 0 0 0 0 
ST 82 0 0 0 0 0 
ST 83 0 0 0 0 0 
ST 84 0 0 0 0 0 
ST 85 0 0 0 0 0 
ST 86 0 1 0 0 1 
ST 87 0 0 0 0 0 
ST 88 0 0 0 0 0 
ST 89 0 0 0 0 0 
ST 90 0 1 0 0 0 
ST 91 0 0 0 0 0 
ST 92 0 0 0 0 0 
ST 93 0 1 0 0 0 
ST 94 0 0 0 0 0 
ST 95 0 0 0 0 0 
ST 96 0 0 0 0 0 
ST 97 0 0 0 0 0 
ST 98 0 1 0 0 0 
ST 99 0 0 0 0 0 
ST 100 0 0 0 0 0 
ST 101 0 0 0 0 0 
ST 102 0 0 0 0 0 
ST 103 0 1 0 1 0 
ST 104 1 1 0 0 0 
ST 105 0 0 0 1 0 
ST 106 0 0 0 0 0 
ST 107 0 0 0 0 0 
ST 108 0 1 0 0 0 
ST 109 0 0 0 0 1 
ST 110 0 0 0 0 0 
ST 111 0 0 0 0 0 
ST 112 0 0 0 0 0 
ST 113 0 0 0 0 0 
ST 114 0 0 0 0 0 
ST 115 0 0 0 0 0 
ST 116 0 0 0 0 0 
ST 117 0 0 0 0 0 
ST 118 0 0 0 0 0 
ST 119 0 0 0 0 0 
ST 120 0 0 0 0 0 
ST 121 0 0 0 0 0 
ST 122 0 0 0 0 0 
ST 123 0 0 0 0 0 
ST 124 0 0 0 0 0 
ST 125 0 0 0 0 0 
ST 126 0 0 0 0 0 
ST 127 0 0 0 0 0 
ST 128 0 0 0 0 0 
ST 129 0 0 0 0 0 
ST 130 0 0 0 0 0 
ST 131 0 0 0 0 0 
ST 132 0 0 0 0 0 
ST 133 0 0 0 0 0 
ST 134 0 0 0 0 0 
ST 135 0 0 0 0 0 
ST 136 0 0 0 0 0 
ST 137 0 0 0 0 0 
ST 138 0 0 0 0 0 
ST 139 0 0 0 0 0 
ST 140 0 0 0 0 1 
ST 141 0 0 0 0 1 
ST 142 0 0 0 0 0 
ST 143 0 0 0 0 0 
ST 144 0 0 0 0 0 
ST 145 0 0 0 1 0 
ST 146 0 0 0 0 0 
ST 147 0 0 0 0 0 
ST 148 0 0 0 0 0 
ST 149 1 1 0 1 1 
ST 150 0 0 0 0 0 
ST 151 0 0 0 0 0 
ST 152 0 0 0 0 0 
ST 153 0 0 0 1 0 
ST 154 0 0 0 0 0 
ST 155 0 0 0 0 0 
ST 156 0 0 0 0 0 
ST 157 0 0 0 0 0 
END


SECTION Coordinates
DD 1 0 0
DD 2 286 300
DD 3 358 136
DD 4 518 74
DD 5 330 74
DD 6 138 576
DD 7 102 782
DD 8 248 604
DD 9 476 0
DD 10 478 0
DD 11 550 418
DD 12 518 782
DD 13 518 736
DD 14 248 782
DD 15 146 364
DD 16 102 292
DD 17 178 576
DD 18 518 604
DD 19 388 736
DD 20 518 0
DD 21 178 685
DD 22 478 576
DD 23 276 300
DD 24 550 260
DD 25 146 292
DD 26 276 364
DD 27 550 382
DD 28 550 0
DD 29 286 234
DD 30 248 736
DD 31 388 604
DD 32 478 74
DD 33 76 294
DD 34 0 122
DD 35 52 436
DD 36 518 576
DD 37 146 250
DD 38 276 604
DD 39 502 604
DD 40 0 136
DD 41 472 418
DD 42 248 576
DD 43 76 300
DD 44 304 136
DD 45 110 136
DD 46 146 0
DD 47 472 604
DD 48 550 736
DD 49 102 736
DD 50 518 260
DD 51 330 136
DD 52 0 604
DD 53 138 440
DD 54 472 576
DD 55 76 122
DD 56 478 782
DD 57 126 576
DD 58 110 292
DD 59 110 300
DD 60 126 440
DD 61 478 136
DD 62 126 604
DD 63 76 364
DD 64 138 300
DD 65 502 576
DD 66 550 74
DD 67 110 364
DD 68 178 604
DD 69 146 136
DD 70 286 364
DD 71 110 404
DD 72 502 736
DD 73 478 364
DD 74 110 436
DD 75 110 440
DD 76 276 486
DD 77 138 364
DD 78 478 604
DD 79 478 173
DD 80 0 234
DD 81 102 440
DD 82 472 364
DD 83 330 250
DD 84 478 736
DD 85 388 782
DD 86 138 294
DD 87 518 382
DD 88 472 736
DD 89 330 234
DD 90 102 294
DD 91 138 122
DD 92 276 782
DD 93 102 436
DD 94 286 250
DD 95 126 486
DD 96 304 74
DD 97 550 782
DD 98 0 736
DD 99 388 576
DD 100 102 604
DD 101 0 294
DD 102 0 300
DD 103 386 136
DD 104 304 0
DD 105 502 418
DD 106 248 486
DD 107 502 382
DD 108 138 234
DD 109 330 0
DD 110 138 250
DD 111 0 782
DD 112 358 74
DD 113 178 486
DD 114 276 576
DD 115 472 782
DD 116 178 736
DD 117 478 260
DD 118 472 382
DD 119 138 486
DD 120 518 136
DD 121 358 0
DD 122 76 136
DD 123 502 782
DD 124 146 122
DD 125 110 122
DD 126 476 136
DD 127 0 364
DD 128 518 418
DD 129 476 250
DD 130 138 604
DD 131 276 736
DD 132 76 234
DD 133 550 604
DD 134 102 364
DD 135 146 300
DD 136 110 234
DD 137 146 294
DD 138 110 250
DD 139 110 294
DD 140 476 74
DD 141 388 418
DD 142 76 292
DD 143 550 206
DD 144 138 292
DD 145 502 260
DD 146 478 250
DD 147 550 576
DD 148 518 206
DD 149 388 516
DD 150 146 234
DD 151 102 300
DD 152 478 382
DD 153 138 136
DD 154 0 436
DD 155 478 418
DD 156 276 418
DD 157 0 440
END

EOF
